26 4
56 44 25 29 49 26 54 42 37 52 59 48 11 96 58 56 29 64 93 45 93 29 30 80 30 99
42 41 19 23 54 15 53 17 37 50 78 51 31 111 39 48 25 49 99 65 68 34 35 84 23 104
42 65 43 23 60 18 43 44 27 60 82 68 38 87 45 60 19 74 98 48 89 25 14 90 44 82
50 62 23 37 66 37 51 45 18 50 62 47 27 111 57 65 30 75 82 43 69 12 31 92 42 97
